NAME /Users/henri/Research/solvers/instances/idol-instances/robust/collection/cbp_Subramanyam_et_al_2020/CapBud_N15_4/models/uncertain_technology_matrix/
ROWS
 N  OBJ
 L  capacity
 L  c_1335
 L  c_1336
 L  c_1337
 L  c_1338
 L  c_1339
 L  c_1340
 L  c_1341
 L  c_1342
 L  c_1343
 L  c_1344
 L  c_1345
 L  c_1346
 L  c_1347
 L  c_1348
 L  c_1349
COLUMNS
    MARKER    'MARKER'                 'INTORG'
    x_0        OBJ        -8.73725
    x_0        c_1335     1
    x_0        capacity   1.74745
    x_1        OBJ        -1.96474
    x_1        c_1336     1
    x_1        capacity   0.392948
    x_2        OBJ        -2.04467
    x_2        c_1337     1
    x_2        capacity   0.408933
    x_3        OBJ        -9.04968
    x_3        c_1338     1
    x_3        capacity   1.80994
    x_4        OBJ        -6.69343
    x_4        c_1339     1
    x_4        capacity   1.33869
    x_5        OBJ        -6.16694
    x_5        c_1340     1
    x_5        capacity   1.23339
    x_6        OBJ        -7.06753
    x_6        c_1341     1
    x_6        capacity   1.41351
    x_7        OBJ        -2.15388
    x_7        c_1342     1
    x_7        capacity   0.430777
    x_8        OBJ        -5.86366
    x_8        c_1343     1
    x_8        capacity   1.17273
    x_9        OBJ        -6.89365
    x_9        c_1344     1
    x_9        capacity   1.37873
    x_10       OBJ        -2.56325
    x_10       c_1345     1
    x_10       capacity   0.51265
    x_11       OBJ        -8.40272
    x_11       c_1346     1
    x_11       capacity   1.68054
    x_12       OBJ        -5.54417
    x_12       c_1347     1
    x_12       capacity   1.10883
    x_13       OBJ        -5.0238
    x_13       c_1348     1
    x_13       capacity   1.00476
    x_14       OBJ        -8.61471
    x_14       c_1349     1
    x_14       capacity   1.72294
    y_0        OBJ        -6.9898
    y_0        c_1335     1
    y_0        capacity   1.74745
    y_1        OBJ        -1.57179
    y_1        c_1336     1
    y_1        capacity   0.392948
    y_2        OBJ        -1.63573
    y_2        c_1337     1
    y_2        capacity   0.408933
    y_3        OBJ        -7.23974
    y_3        c_1338     1
    y_3        capacity   1.80994
    y_4        OBJ        -5.35474
    y_4        c_1339     1
    y_4        capacity   1.33869
    y_5        OBJ        -4.93355
    y_5        c_1340     1
    y_5        capacity   1.23339
    y_6        OBJ        -5.65403
    y_6        c_1341     1
    y_6        capacity   1.41351
    y_7        OBJ        -1.72311
    y_7        c_1342     1
    y_7        capacity   0.430777
    y_8        OBJ        -4.69093
    y_8        c_1343     1
    y_8        capacity   1.17273
    y_9        OBJ        -5.51492
    y_9        c_1344     1
    y_9        capacity   1.37873
    y_10       OBJ        -2.0506
    y_10       c_1345     1
    y_10       capacity   0.51265
    y_11       OBJ        -6.72218
    y_11       c_1346     1
    y_11       capacity   1.68054
    y_12       OBJ        -4.43533
    y_12       c_1347     1
    y_12       capacity   1.10883
    y_13       OBJ        -4.01904
    y_13       c_1348     1
    y_13       capacity   1.00476
    y_14       OBJ        -6.89177
    y_14       c_1349     1
    y_14       capacity   1.72294
    MARKER    'MARKER'                 'INTEND'
RHS
    RHS       capacity   43.392
    RHS       c_1335     1
    RHS       c_1336     1
    RHS       c_1337     1
    RHS       c_1338     1
    RHS       c_1339     1
    RHS       c_1340     1
    RHS       c_1341     1
    RHS       c_1342     1
    RHS       c_1343     1
    RHS       c_1344     1
    RHS       c_1345     1
    RHS       c_1346     1
    RHS       c_1347     1
    RHS       c_1348     1
    RHS       c_1349     1
BOUNDS
 LI BND       x_0        0
 UI BND       x_0        1
 LI BND       x_1        0
 UI BND       x_1        1
 LI BND       x_2        0
 UI BND       x_2        1
 LI BND       x_3        0
 UI BND       x_3        1
 LI BND       x_4        0
 UI BND       x_4        1
 LI BND       x_5        0
 UI BND       x_5        1
 LI BND       x_6        0
 UI BND       x_6        1
 LI BND       x_7        0
 UI BND       x_7        1
 LI BND       x_8        0
 UI BND       x_8        1
 LI BND       x_9        0
 UI BND       x_9        1
 LI BND       x_10       0
 UI BND       x_10       1
 LI BND       x_11       0
 UI BND       x_11       1
 LI BND       x_12       0
 UI BND       x_12       1
 LI BND       x_13       0
 UI BND       x_13       1
 LI BND       x_14       0
 UI BND       x_14       1
 LI BND       y_0        0
 UI BND       y_0        1
 LI BND       y_1        0
 UI BND       y_1        1
 LI BND       y_2        0
 UI BND       y_2        1
 LI BND       y_3        0
 UI BND       y_3        1
 LI BND       y_4        0
 UI BND       y_4        1
 LI BND       y_5        0
 UI BND       y_5        1
 LI BND       y_6        0
 UI BND       y_6        1
 LI BND       y_7        0
 UI BND       y_7        1
 LI BND       y_8        0
 UI BND       y_8        1
 LI BND       y_9        0
 UI BND       y_9        1
 LI BND       y_10       0
 UI BND       y_10       1
 LI BND       y_11       0
 UI BND       y_11       1
 LI BND       y_12       0
 UI BND       y_12       1
 LI BND       y_13       0
 UI BND       y_13       1
 LI BND       y_14       0
 UI BND       y_14       1
ENDATA
